Version identifier: 22.1.0.0 | 2022-03-09 | 1a383f8ce
CPXPARAM_Threads                                 1
CPXPARAM_MIP_Strategy_VariableSelect             3
CPXPARAM_TimeLimit                               599.99998759599998
1 of 1 MIP starts provided solutions.
MIP start 'm1' defined initial solution with objective 1.0000.
Tried aggregator 2 times.
MIP Presolve eliminated 40 rows and 1 columns.
MIP Presolve added 36 rows and 9 columns.
MIP Presolve modified 51 coefficients.
Aggregator did 9 substitutions.
Reduced MIP has 1807 rows, 6000 columns, and 109837 nonzeros.
Reduced MIP has 6000 binaries, 0 generals, 0 SOSs, and 0 indicators.
Presolve time = 0.16 sec. (204.49 ticks)
Probing time = 0.02 sec. (18.14 ticks)
Tried aggregator 1 time.
Detecting symmetries...
MIP Presolve modified 13 coefficients.
Reduced MIP has 1807 rows, 6000 columns, and 110084 nonzeros.
Reduced MIP has 6000 binaries, 0 generals, 0 SOSs, and 0 indicators.
Presolve time = 0.11 sec. (157.54 ticks)
Probing time = 0.02 sec. (18.17 ticks)
Clique table members: 1194.
MIP emphasis: balance optimality and feasibility.
MIP search method: dynamic search.
Parallel mode: none, using 1 thread.
Root relaxation solution time = 1.28 sec. (1551.75 ticks)

        Nodes                                         Cuts/
   Node  Left     Objective  IInf  Best Integer    Best Bound    ItCnt     Gap

*     0+    0                            1.0000    45150.0000              --- 
      0     0      300.0000  1302        1.0000      300.0000     4473     --- 
      0     0      300.0000  1054        1.0000      Cuts: 12    10153     --- 
      0     0      300.0000  1187        1.0000      Cuts: 23    12904     --- 
      0     0      300.0000  1220        1.0000      Cuts: 31    17740     --- 
Detecting symmetries...
      0     2      300.0000   877        1.0000      300.0000    17740     --- 
Elapsed time = 60.62 sec. (65094.42 ticks, tree = 0.01 MB, solutions = 1)
      1     2      234.7500   789        1.0000      300.0000    25581     --- 
      2     3      300.0000  1245        1.0000      300.0000    32088     --- 
      3     4      300.0000  1229        1.0000      300.0000    38422     --- 
      4     5      300.0000  1249        1.0000      300.0000    43872     --- 
      5     6      300.0000  1231        1.0000      300.0000    43948     --- 
      6     7      300.0000  1198        1.0000      300.0000    44515     --- 
      7     8      300.0000  1283        1.0000      300.0000    45034     --- 
      8     9      300.0000  1205        1.0000      300.0000    45330     --- 
      9    10      300.0000  1202        1.0000      300.0000    45345     --- 
     11    12      300.0000  1210        1.0000      300.0000    46363     --- 
Elapsed time = 74.98 sec. (82485.55 ticks, tree = 0.06 MB, solutions = 1)
     13    14      300.0000  1199        1.0000      300.0000    48107     --- 
     15    16      300.0000  1208        1.0000      300.0000    48745     --- 
     18    19      300.0000  1199        1.0000      300.0000    50167     --- 
     20    20      227.5000   682        1.0000      300.0000    52101     --- 
     22    22      300.0000  1198        1.0000      300.0000    53230     --- 
     24    24      300.0000  1182        1.0000      300.0000    53855     --- 
     26    26      300.0000  1175        1.0000      300.0000    55552     --- 
     29    29      300.0000  1172        1.0000      300.0000    55680     --- 
     30    30      300.0000  1195        1.0000      300.0000    56621     --- 
     33    33      300.0000  1185        1.0000      300.0000    58795     --- 
Elapsed time = 91.43 sec. (101516.84 ticks, tree = 0.11 MB, solutions = 1)
     35    35      300.0000  1176        1.0000      300.0000    60471     --- 
     38    38      300.0000  1263        1.0000      300.0000    61182     --- 
     40    40      300.0000  1247        1.0000      300.0000    62879     --- 
     42    42      300.0000  1171        1.0000      300.0000    63518     --- 
     44    44      195.0000   743        1.0000      300.0000    74756     --- 
     45    45      300.0000  1163        1.0000      300.0000    74759     --- 
     47    47      300.0000  1173        1.0000      300.0000    76078     --- 
     49    49      300.0000  1150        1.0000      300.0000    76956     --- 
*    50+   48                           41.0000      300.0000           631.71%
     51    51      300.0000  1134       41.0000      300.0000    77789  631.71%
     53    53      300.0000  1243       41.0000      300.0000    79227  631.71%
Elapsed time = 109.92 sec. (122698.84 ticks, tree = 0.16 MB, solutions = 2)
     55    55      300.0000  1084       41.0000      300.0000    80182  631.71%
     57    57      300.0000  1082       41.0000      300.0000    80999  631.71%
     58    58      300.0000  1110       41.0000      300.0000    86276  631.71%
     60    60      300.0000  1104       41.0000      300.0000    87342  631.71%
     62    62      300.0000  1107       41.0000      300.0000    87927  631.71%
     64    64      265.0000   894       41.0000      300.0000    90242  631.71%
     66    66      300.0000  1094       41.0000      300.0000    90753  631.71%
     68    68      300.0000  1138       41.0000      300.0000    91948  631.71%
     71    71      300.0000  1086       41.0000      300.0000    94375  631.71%
     74    74      300.0000  1070       41.0000      300.0000    96778  631.71%
Elapsed time = 126.89 sec. (141438.95 ticks, tree = 0.21 MB, solutions = 2)
     76    76      300.0000  1064       41.0000      300.0000   103850  631.71%
     78    78      300.0000  1020       41.0000      300.0000   114586  631.71%
     80    80      300.0000   986       41.0000      300.0000   118384  631.71%
     82    82      299.9798  1047       41.0000      300.0000   127819  631.71%
     83    83      299.6220  1030       41.0000      300.0000   138372  631.71%
     85    84      299.6090   952       41.0000      300.0000   146396  631.71%
     87    86      299.9564  1039       41.0000      300.0000   154441  631.71%
     90    88      299.0000  1079       41.0000      300.0000   160780  631.71%
     91    88      299.6768  1033       41.0000      300.0000   168127  631.71%
     93    90      299.0000   841       41.0000      300.0000   175383  631.71%
Elapsed time = 148.76 sec. (163535.98 ticks, tree = 0.26 MB, solutions = 2)
     94    90      298.0500   967       41.0000      300.0000   176746  631.71%
     97    93      299.0000   778       41.0000      300.0000   183948  631.71%
     98    93      297.8262   973       41.0000      300.0000   193586  631.71%
    100    95      299.0000   757       41.0000      300.0000   197560  631.71%
    102    96      298.8868   934       41.0000      300.0000   216003  631.71%
    103    97      298.9387   919       41.0000      300.0000   221581  631.71%
    105    98      298.0286   946       41.0000      300.0000   225134  631.71%
    108   100      298.0906   987       41.0000      300.0000   240777  631.71%
    110   101      297.8711   937       41.0000      300.0000   258151  631.71%
    112   102      298.9592   938       41.0000      300.0000   265287  631.71%
Elapsed time = 168.26 sec. (182322.14 ticks, tree = 0.46 MB, solutions = 2)
    114   104      298.7537  1004       41.0000      300.0000   267681  631.71%
    116   105      298.9483   934       41.0000      300.0000   270112  631.71%
    117   105      299.0000   763       41.0000      300.0000   275849  631.71%
    118   106      299.0000   779       41.0000      300.0000   285917  631.71%
    121   109      298.9674   911       41.0000      300.0000   304134  631.71%
    124   111      298.7073   928       41.0000      300.0000   310491  631.71%
    125   112      298.9347   984       41.0000      300.0000   313080  631.71%
    127   114      298.8091   948       41.0000      300.0000   333704  631.71%
    129   116      298.9543   976       41.0000      300.0000   340022  631.71%
    133   118      298.9674   913       41.0000      300.0000   345257  631.71%
Elapsed time = 185.21 sec. (198706.99 ticks, tree = 0.75 MB, solutions = 2)
    135   119      297.9947  1001       41.0000      300.0000   365098  631.71%
    137   121      298.9643   961       41.0000      300.0000   368397  631.71%
    139   123      298.9554   967       41.0000      300.0000   370688  631.71%
    141   124      297.9202   925       41.0000      300.0000   401572  631.71%
    143   125      298.1925   978       41.0000      300.0000   410494  631.71%
    146   128      289.0000   628       41.0000      300.0000   411385  631.71%
    151   133      289.0000   624       41.0000      300.0000   412003  631.71%
    156   138      289.0000   684       41.0000      300.0000   412841  631.71%
    161   142      289.0000   671       41.0000      300.0000   413819  631.71%
    165   146      289.0000   628       41.0000      300.0000   414670  631.71%
Elapsed time = 205.17 sec. (218135.36 ticks, tree = 1.20 MB, solutions = 2)
    170   151      289.0000   617       41.0000      300.0000   415639  631.71%
    174   154      289.0000   652       41.0000      300.0000   416768  631.71%
    178   158      289.0000   694       41.0000      300.0000   417774  631.71%
    183   162      289.0000   645       41.0000      300.0000   418237  631.71%
    187   166      289.0000   577       41.0000      300.0000   419572  631.71%
    192   170      289.0000   743       41.0000      300.0000   421065  631.71%
    197   174      289.0000   549       41.0000      300.0000   422293  631.71%
    200   176      289.0000   621       41.0000      300.0000   424117  631.71%
    205   179      289.0000   588       41.0000      300.0000   426163  631.71%
    209   182      289.0000   533       41.0000      300.0000   426905  631.71%
Elapsed time = 216.11 sec. (228905.44 ticks, tree = 1.80 MB, solutions = 2)
    211   183      289.0000   480       41.0000      300.0000   428229  631.71%
    217   185      289.0000   550       41.0000      300.0000   430362  631.71%
    223   189      289.0000   486       41.0000      300.0000   431418  631.71%
    229   195      289.0000   460       41.0000      300.0000   432977  631.71%
    235   199      289.0000   482       41.0000      300.0000   435175  631.71%
    240   204      289.0000   500       41.0000      300.0000   436683  631.71%
    247   206      289.0000   514       41.0000      300.0000   438665  631.71%
    253   207      289.0000   528       41.0000      300.0000   440902  631.71%
    260   211    infeasible             41.0000      300.0000   442741  631.71%
    287   211    infeasible             41.0000      300.0000   453585  631.71%
Elapsed time = 231.25 sec. (243213.31 ticks, tree = 2.30 MB, solutions = 2)
    313   216      289.0000   448       41.0000      300.0000   463689  631.71%
    341   221      289.0000   487       41.0000      300.0000   472273  631.71%
    379   220    infeasible             41.0000      300.0000   481616  631.71%
    414   220      289.0000   475       41.0000      300.0000   490155  631.71%
    449   223      289.0000   472       41.0000      300.0000   497356  631.71%
    482   225      289.0000   470       41.0000      300.0000   506801  631.71%
    513   232    infeasible             41.0000      300.0000   517158  631.71%
    552   235      289.0000   448       41.0000      300.0000   526682  631.71%
    592   233    infeasible             41.0000      300.0000   535909  631.71%
    634   234      289.0000   443       41.0000      300.0000   544754  631.71%
Elapsed time = 272.02 sec. (281952.50 ticks, tree = 2.66 MB, solutions = 2)
    678   234    infeasible             41.0000      300.0000   554952  631.71%
    720   235    infeasible             41.0000      300.0000   564998  631.71%
    751   235      299.3874   939       41.0000      300.0000   577452  631.71%
    756   238      299.0000  1051       41.0000      300.0000   584957  631.71%
    765   246      298.7084   934       41.0000      300.0000   590106  631.71%
    777   258      298.9687   993       41.0000      300.0000   593730  631.71%
    787   265      298.6615   908       41.0000      300.0000   598417  631.71%
    802   274      298.8840   928       41.0000      300.0000   600477  631.71%
    813   285      297.3186   833       41.0000      300.0000   605493  631.71%
    826   293      295.6960   761       41.0000      300.0000   610343  631.71%
Elapsed time = 311.36 sec. (322156.96 ticks, tree = 3.65 MB, solutions = 2)
    840   305      294.6122   678       41.0000      300.0000   615330  631.71%
    858   316      293.0914   614       41.0000      300.0000   620296  631.71%
    875   330      291.0000   491       41.0000      300.0000   625199  631.71%
    894   344      289.0376   473       41.0000      300.0000   630243  631.71%
    922   356      286.2284   464       41.0000      300.0000   637771  631.71%
*   923+  352                          233.0000      300.0000            28.76%
*   923+  351                          245.0000      300.0000            22.45%
*   923+  351                          248.0000      300.0000            20.97%
    923   353      300.0000  1159      248.0000      300.0000   642660   20.97%
*   924+  352                          253.0000      300.0000            18.58%
*   924+  352                          256.0000      300.0000            17.19%
    924   354      300.0000  1166      256.0000      300.0000   648423   17.19%
*   925+  351                          265.0000      300.0000            13.21%
*   925+  350                          268.0000      300.0000            11.94%
*   925+  350                          270.0000      300.0000            11.11%
*   926+  351                          271.0000      300.0000            10.70%
    926   353      300.0000  1210      271.0000      300.0000   655382   10.70%
    930   357      299.9388  1055      271.0000      300.0000   662801   10.70%
    944   371      299.9388  1039      271.0000      300.0000   664327   10.70%
Elapsed time = 401.94 sec. (405770.34 ticks, tree = 5.10 MB, solutions = 11)
    959   383      299.8510  1065      271.0000      300.0000   666780   10.70%
    972   395      298.6683  1027      271.0000      300.0000   669643   10.70%
    987   410      298.6683  1028      271.0000      300.0000   670635   10.70%
   1000   423      298.6683  1023      271.0000      300.0000   671782   10.70%
   1014   437      298.6683  1022      271.0000      300.0000   672947   10.70%
   1029   452      298.6683  1032      271.0000      300.0000   673754   10.70%

Performing restart 1

Repeating presolve.
Tried aggregator 1 time.
MIP Presolve eliminated 0 rows and 271 columns.
MIP Presolve modified 77 coefficients.
Reduced MIP has 1807 rows, 5729 columns, and 65726 nonzeros.
Reduced MIP has 5729 binaries, 0 generals, 0 SOSs, and 0 indicators.
Presolve time = 0.05 sec. (41.35 ticks)
Tried aggregator 1 time.
Reduced MIP has 1807 rows, 5729 columns, and 65726 nonzeros.
Reduced MIP has 5729 binaries, 0 generals, 0 SOSs, and 0 indicators.
Presolve time = 0.04 sec. (36.83 ticks)
Represolve time = 0.38 sec. (230.53 ticks)
   1036     0      300.0000  1238      271.0000      Cuts: 41   684887   10.70%
   1036     0      300.0000  1275      271.0000      Cuts: 85   691592   10.70%
   1036     0      300.0000  1289      271.0000      Cuts: 57   696881   10.70%
   1036     0      300.0000  1278      271.0000      Cuts: 57   703013   10.70%
   1036     0      300.0000  1286      271.0000      Cuts: 42   708354   10.70%
   1036     0      300.0000  1250      271.0000      Cuts: 44   714236   10.70%
   1036     0      300.0000  1162      271.0000      Cuts: 33   721632   10.70%
   1036     0      300.0000  1300      271.0000      Cuts: 39   727663   10.70%
   1036     2      300.0000   866      271.0000      300.0000   727663   10.70%
   1039     3      300.0000  1293      271.0000      300.0000   742091   10.70%
   1041     5      300.0000  1283      271.0000      300.0000   753911   10.70%
   1044     7      300.0000  1266      271.0000      300.0000   761026   10.70%
Elapsed time = 589.07 sec. (597068.52 ticks, tree = 0.02 MB, solutions = 11)
   1050    12      300.0000  1257      271.0000      300.0000   762717   10.70%

Clique cuts applied:  17
Zero-half cuts applied:  24
Gomory fractional cuts applied:  6

Root node processing (before b&c):
  Real time             =   60.33 sec. (64847.19 ticks)
Sequential b&c:
  Real time             =  539.68 sec. (544187.22 ticks)
                          ------------
Total (root+branch&cut) =  600.01 sec. (609034.41 ticks)
Primal:	271
Dual:	300
Status:	Feasible
Time:	599.98
Sequence:
	13
	5
	15
	3
	15
	5
	0
	15
	7
	10
	5
	12
	5
	10
	2
	0
	15
	0
	7
	10
	5
	12
	0
	15
	7
	0
	15
	0
	11
	2
	5
	10
	8
	4
	10
	8
	15
	0
	7
	15
	0
	15
	5
	10
	3
	5
	15
	2
	5
	10
	5
	3
	15
	5
	10
	5
	4
	10
	8
	15
	0
	15
	7
	10
	6
	10
	7
	15
	0
	15
	6
	10
	2
	15
	5
	10
	5
	4
	10
	8
	10
	5
	4
	10
	8
	15
	0
	15
	4
	10
	8
	0
	15
	2
	11
	5
	7
	10
	5
	17
	0
	15
	7
	0
	15
	4
	10
	5
	15
	2
	5
	4
	10
	0
	7
	15
	1
	15
	2
	15
	0
	6
	15
	2
	15
	0
	15
	5
	2
	15
	1
	15
	0
	15
	7
	10
	5
	6
	10
	7
	15
	0
	15
	7
	10
	5
	5
	10
	7
	15
	0
	7
	10
	0
	17
	5
	10
	7
	0
	15
	0
	4
	10
	5
	15
	0
	15
	4
	10
	8
	10
	5
	10
	7
	0
	15
	1
	15
	2
	15
	5
	10
	1
	10
	7
	15
	0
	15
	7
	10
	6
	15
	0
	15
	7
	10
	4
	5
	10
	5
	2
	15
	5
	3
	15
	0
	10
	8
	4
	10
	8
	15
	0
	15
	4
	10
	8
	10
	5
	15
	3
	15
	5
	2
	15
	5
	10
	6
	7
	10
	0
	7
	6
	10
	7
	15
	0
	15
	1
	7
	15
	0
	10
	4
	15
	2
	0
	15
	4
	10
	8
	10
	5
	7
	10
	6
	10
	5
	15
	2
	15
	4
	13
	5
	10
	7
	10
	5
	11
	8
	15
